\ Model dynamicmatch_primal
\ LP format - for model browsing. Use MPS format to capture full model detail.
Maximize
  1e-05 primal[0] + 1e-05 primal[1] + 1e-05 primal[2] - primal[3]
   - primal[4] - primal[5] - primal[6] - primal[7] - primal[8] - primal[9]
   - primal[10] - primal[11] - primal[12] + 1e-05 primal[13]
   + 1e-05 primal[14] + 1e-05 primal[15] - primal[16] - primal[17]
   - primal[18] - primal[19] - primal[20] - primal[21] - primal[22]
   - primal[23] - primal[24] - primal[25] + 1e-05 primal[26]
   + 1e-05 primal[27] + 1e-05 primal[28] - primal[29] - primal[30]
   - primal[31] - primal[32] - primal[33] - primal[34] - primal[35]
   - primal[36] - primal[37] - primal[38] + 1e-05 primal[39]
   + 1e-05 primal[40] + 1e-05 primal[41] - primal[42] - primal[43]
   - primal[44] - primal[45] - primal[46] - primal[47] - primal[48]
   - primal[49] - primal[50] - primal[51] + 1e-05 primal[52]
   + 1e-05 primal[53] + 1e-05 primal[54] - primal[55] - primal[56]
   - primal[57] - primal[58] - primal[59] - primal[60] - primal[61]
   - primal[62] - primal[63] - primal[64] + 1e-05 primal[65]
   + 1e-05 primal[66] + 1e-05 primal[67] - primal[68] - primal[69]
   - primal[70] - primal[71] - primal[72] - primal[73] - primal[74]
   - primal[75] - primal[76] - primal[77] + 1e-05 primal[78]
   + 1e-05 primal[79] + 1e-05 primal[80] - primal[81] - primal[82]
   - primal[83] - primal[84] - primal[85] - primal[86] - primal[87]
   - primal[88] - primal[89] - primal[90] + 1e-05 primal[91]
   + 1e-05 primal[92] + 1e-05 primal[93] - primal[94] - primal[95]
   - primal[96] - primal[97] - primal[98] - primal[99] - primal[100]
   - primal[101] - primal[102] - primal[103] + 1e-05 primal[104]
   + 1e-05 primal[105] + 1e-05 primal[106] - primal[107] - primal[108]
   - primal[109] - primal[110] - primal[111] - primal[112] - primal[113]
   - primal[114] - primal[115] - primal[116] + 1e-05 primal[117]
   + 1e-05 primal[118] + 1e-05 primal[119] + 0.4219960671586328 primal[120]
   + 0.4219960671586328 primal[121] + 0.4219960671586328 primal[122]
   - primal[123] - primal[124] - primal[125] - primal[126] - primal[127]
   - primal[128] - primal[129] - primal[130] - primal[131] - primal[132]
   + 0.457677810849023 primal[133] + 0.457677810849023 primal[134]
   + 0.457677810849023 primal[135] - primal[136] - primal[137]
   - primal[138] - primal[139] - primal[140] - primal[141] - primal[142]
   - primal[143] - primal[144] - primal[145]
   + 0.9311016999243136 primal[146] + 0.9311016999243136 primal[147]
   + 0.9311016999243136 primal[148] - primal[149] - primal[150]
   - primal[151] - primal[152] - primal[153] - primal[154] - primal[155]
   - primal[156] - primal[157] - primal[158]
   + 0.7738993642332241 primal[159] + 0.7738993642332241 primal[160]
   + 0.7738993642332241 primal[161] - primal[162] - primal[163]
   - primal[164] - primal[165] - primal[166] - primal[167] - primal[168]
   - primal[169] - primal[170] - primal[171]
   + 0.5693034200864846 primal[172] + 0.5693034200864846 primal[173]
   + 0.5693034200864846 primal[174] - primal[175] - primal[176]
   - primal[177] - primal[178] - primal[179] - primal[180] - primal[181]
   - primal[182] - primal[183] - primal[184]
   + 0.4814172536542295 primal[185] + 0.4814172536542295 primal[186]
   + 0.4814172536542295 primal[187] - primal[188] - primal[189]
   - primal[190] - primal[191] - primal[192] - primal[193] - primal[194]
   - primal[195] - primal[196] - primal[197]
   + 0.2607588100621491 primal[198] + 0.2607588100621491 primal[199]
   + 0.2607588100621491 primal[200] - primal[201] - primal[202]
   - primal[203] - primal[204] - primal[205] - primal[206] - primal[207]
   - primal[208] - primal[209] - primal[210]
   + 0.0208610964349036 primal[211] + 0.0208610964349036 primal[212]
   + 0.0208610964349036 primal[213] - primal[214] - primal[215]
   - primal[216] - primal[217] - primal[218] - primal[219] - primal[220]
   - primal[221] - primal[222] - primal[223]
   + 0.930654260705815 primal[224] + 0.930654260705815 primal[225]
   + 0.930654260705815 primal[226] - primal[227] - primal[228]
   - primal[229] - primal[230] - primal[231] - primal[232] - primal[233]
   - primal[234] - primal[235] - primal[236]
   + 0.4452692240182915 primal[237] + 0.4452692240182915 primal[238]
   + 0.4452692240182915 primal[239] + 0.1929425165380314 primal[240]
   + 0.1929425165380314 primal[241] + 0.1929425165380314 primal[242]
   - primal[243] - primal[244] - primal[245] - primal[246] - primal[247]
   - primal[248] - primal[249] - primal[250] - primal[251] - primal[252]
   + 0.9509559985932045 primal[253] + 0.9509559985932045 primal[254]
   + 0.9509559985932045 primal[255] - primal[256] - primal[257]
   - primal[258] - primal[259] - primal[260] - primal[261] - primal[262]
   - primal[263] - primal[264] - primal[265]
   + 0.6440431896320492 primal[266] + 0.6440431896320492 primal[267]
   + 0.6440431896320492 primal[268] - primal[269] - primal[270]
   - primal[271] - primal[272] - primal[273] - primal[274] - primal[275]
   - primal[276] - primal[277] - primal[278]
   + 0.8274919158711066 primal[279] + 0.8274919158711066 primal[280]
   + 0.8274919158711066 primal[281] - primal[282] - primal[283]
   - primal[284] - primal[285] - primal[286] - primal[287] - primal[288]
   - primal[289] - primal[290] - primal[291]
   + 0.8291995326019059 primal[292] + 0.8291995326019059 primal[293]
   + 0.8291995326019059 primal[294] - primal[295] - primal[296]
   - primal[297] - primal[298] - primal[299] - primal[300] - primal[301]
   - primal[302] - primal[303] - primal[304]
   + 0.7837056385545209 primal[305] + 0.7837056385545209 primal[306]
   + 0.7837056385545209 primal[307] - primal[308] - primal[309]
   - primal[310] - primal[311] - primal[312] - primal[313] - primal[314]
   - primal[315] - primal[316] - primal[317]
   + 0.1248913638581958 primal[318] + 0.1248913638581958 primal[319]
   + 0.1248913638581958 primal[320] - primal[321] - primal[322]
   - primal[323] - primal[324] - primal[325] - primal[326] - primal[327]
   - primal[328] - primal[329] - primal[330]
   + 0.1926068530267402 primal[331] + 0.1926068530267402 primal[332]
   + 0.1926068530267402 primal[333] - primal[334] - primal[335]
   - primal[336] - primal[337] - primal[338] - primal[339] - primal[340]
   - primal[341] - primal[342] - primal[343]
   + 0.2367815363289603 primal[344] + 0.2367815363289603 primal[345]
   + 0.2367815363289603 primal[346] - primal[347] - primal[348]
   - primal[349] - primal[350] - primal[351] - primal[352] - primal[353]
   - primal[354] - primal[355] - primal[356]
   + 0.3008707697598496 primal[357] + 0.3008707697598496 primal[358]
   + 0.3008707697598496 primal[359]
Subject To
 R0: primal[0] <= 10
 R1: primal[1] + primal[13] <= 10
 R2: primal[2] + primal[14] + primal[26] <= 10
 R3: primal[15] + primal[27] + primal[39] <= 10
 R4: primal[28] + primal[40] + primal[52] <= 10
 R5: primal[41] + primal[53] + primal[65] <= 10
 R6: primal[54] + primal[66] + primal[78] <= 10
 R7: primal[67] + primal[79] + primal[91] <= 10
 R8: primal[80] + primal[92] + primal[104] <= 10
 R9: primal[93] + primal[105] + primal[117] <= 10
 R10: primal[106] + primal[118] <= 10
 R11: primal[119] <= 10
 R12: primal[120] + primal[121] + primal[122] + primal[133] + primal[134]
   + primal[135] + primal[146] + primal[147] + primal[148] + primal[159]
   + primal[160] + primal[161] + primal[172] + primal[173] + primal[174]
   + primal[185] + primal[186] + primal[187] + primal[198] + primal[199]
   + primal[200] + primal[211] + primal[212] + primal[213] + primal[224]
   + primal[225] + primal[226] + primal[237] + primal[238] + primal[239]
   <= 2
 R13: primal[121] + primal[122] + primal[133] + primal[134] + primal[135]
   + primal[146] + primal[147] + primal[148] + primal[159] + primal[160]
   + primal[161] + primal[172] + primal[173] + primal[174] + primal[185]
   + primal[186] + primal[187] + primal[198] + primal[199] + primal[200]
   + primal[211] + primal[212] + primal[213] + primal[224] + primal[225]
   + primal[226] + primal[237] + primal[238] + primal[239] <= 2
 R14: primal[122] + primal[134] + primal[135] + primal[146] + primal[147]
   + primal[148] + primal[159] + primal[160] + primal[161] + primal[172]
   + primal[173] + primal[174] + primal[185] + primal[186] + primal[187]
   + primal[198] + primal[199] + primal[200] + primal[211] + primal[212]
   + primal[213] + primal[224] + primal[225] + primal[226] + primal[237]
   + primal[238] + primal[239] <= 2
 R15: primal[135] + primal[147] + primal[148] + primal[159] + primal[160]
   + primal[161] + primal[172] + primal[173] + primal[174] + primal[185]
   + primal[186] + primal[187] + primal[198] + primal[199] + primal[200]
   + primal[211] + primal[212] + primal[213] + primal[224] + primal[225]
   + primal[226] + primal[237] + primal[238] + primal[239] <= 2
 R16: primal[148] + primal[160] + primal[161] + primal[172] + primal[173]
   + primal[174] + primal[185] + primal[186] + primal[187] + primal[198]
   + primal[199] + primal[200] + primal[211] + primal[212] + primal[213]
   + primal[224] + primal[225] + primal[226] + primal[237] + primal[238]
   + primal[239] <= 2
 R17: primal[161] + primal[173] + primal[174] + primal[185] + primal[186]
   + primal[187] + primal[198] + primal[199] + primal[200] + primal[211]
   + primal[212] + primal[213] + primal[224] + primal[225] + primal[226]
   + primal[237] + primal[238] + primal[239] <= 2
 R18: primal[174] + primal[186] + primal[187] + primal[198] + primal[199]
   + primal[200] + primal[211] + primal[212] + primal[213] + primal[224]
   + primal[225] + primal[226] + primal[237] + primal[238] + primal[239]
   <= 2
 R19: primal[187] + primal[199] + primal[200] + primal[211] + primal[212]
   + primal[213] + primal[224] + primal[225] + primal[226] + primal[237]
   + primal[238] + primal[239] <= 2
 R20: primal[200] + primal[212] + primal[213] + primal[224] + primal[225]
   + primal[226] + primal[237] + primal[238] + primal[239] <= 2
 R21: primal[213] + primal[225] + primal[226] + primal[237] + primal[238]
   + primal[239] <= 2
 R22: primal[226] + primal[238] + primal[239] <= 2
 R23: primal[239] <= 2
 R24: primal[240] + primal[241] + primal[242] + primal[253] + primal[254]
   + primal[255] + primal[266] + primal[267] + primal[268] + primal[279]
   + primal[280] + primal[281] + primal[292] + primal[293] + primal[294]
   + primal[305] + primal[306] + primal[307] + primal[318] + primal[319]
   + primal[331] <= 1
 R25: primal[241] + primal[242] + primal[253] + primal[254] + primal[255]
   + primal[266] + primal[267] + primal[268] + primal[279] + primal[280]
   + primal[281] + primal[292] + primal[293] + primal[294] + primal[305]
   + primal[306] + primal[307] + primal[318] + primal[319] + primal[320]
   + primal[331] + primal[332] + primal[344] <= 1
 R26: primal[242] + primal[254] + primal[255] + primal[266] + primal[267]
   + primal[268] + primal[279] + primal[280] + primal[281] + primal[292]
   + primal[293] + primal[294] + primal[305] + primal[306] + primal[307]
   + primal[318] + primal[319] + primal[320] + primal[331] + primal[332]
   + primal[333] + primal[344] + primal[345] + primal[357] <= 1
 R27: primal[255] + primal[267] + primal[268] + primal[279] + primal[280]
   + primal[281] + primal[292] + primal[293] + primal[294] + primal[305]
   + primal[306] + primal[307] + primal[318] + primal[319] + primal[320]
   + primal[331] + primal[332] + primal[333] + primal[344] + primal[345]
   + primal[346] + primal[357] + primal[358] <= 1
 R28: primal[268] + primal[280] + primal[281] + primal[292] + primal[293]
   + primal[294] + primal[305] + primal[306] + primal[307] + primal[318]
   + primal[319] + primal[320] + primal[331] + primal[332] + primal[333]
   + primal[344] + primal[345] + primal[346] + primal[357] + primal[358]
   + primal[359] <= 1
 R29: primal[281] + primal[293] + primal[294] + primal[305] + primal[306]
   + primal[307] + primal[318] + primal[319] + primal[320] + primal[331]
   + primal[332] + primal[333] + primal[344] + primal[345] + primal[346]
   + primal[357] + primal[358] + primal[359] <= 1
 R30: primal[294] + primal[306] + primal[307] + primal[318] + primal[319]
   + primal[320] + primal[331] + primal[332] + primal[333] + primal[344]
   + primal[345] + primal[346] + primal[357] + primal[358] + primal[359]
   <= 1
 R31: primal[307] + primal[319] + primal[320] + primal[331] + primal[332]
   + primal[333] + primal[344] + primal[345] + primal[346] + primal[357]
   + primal[358] + primal[359] <= 1
 R32: primal[320] + primal[332] + primal[333] + primal[344] + primal[345]
   + primal[346] + primal[357] + primal[358] + primal[359] <= 1
 R33: primal[333] + primal[345] + primal[346] + primal[357] + primal[358]
   + primal[359] <= 1
 R34: primal[346] + primal[358] + primal[359] <= 1
 R35: primal[359] <= 1
 R36: primal[0] + primal[1] + primal[2] + primal[120] + primal[121]
   + primal[122] + primal[240] + primal[241] + primal[242] <= 1
 R37: primal[13] + primal[14] + primal[15] + primal[133] + primal[134]
   + primal[135] + primal[253] + primal[254] + primal[255] <= 1
 R38: primal[26] + primal[27] + primal[28] + primal[146] + primal[147]
   + primal[148] + primal[266] + primal[267] + primal[268] <= 1
 R39: primal[39] + primal[40] + primal[41] + primal[159] + primal[160]
   + primal[161] + primal[279] + primal[280] + primal[281] <= 1
 R40: primal[52] + primal[53] + primal[54] + primal[172] + primal[173]
   + primal[174] + primal[292] + primal[293] + primal[294] <= 1
 R41: primal[65] + primal[66] + primal[67] + primal[185] + primal[186]
   + primal[187] + primal[305] + primal[306] + primal[307] <= 1
 R42: primal[78] + primal[79] + primal[80] + primal[198] + primal[199]
   + primal[200] + primal[318] + primal[319] + primal[320] <= 1
 R43: primal[91] + primal[92] + primal[93] + primal[211] + primal[212]
   + primal[213] + primal[331] + primal[332] + primal[333] <= 1
 R44: primal[104] + primal[105] + primal[106] + primal[224] + primal[225]
   + primal[226] + primal[344] + primal[345] + primal[346] <= 1
 R45: primal[117] + primal[118] + primal[119] + primal[237] + primal[238]
   + primal[239] + primal[357] + primal[358] + primal[359] <= 1
Bounds
End
